NAME : SOLVED
COMMENT : Solved with tsp_solver (Copyright Chase Yalon)
TYPE : TSP
DIMENSION: 10
EDGE_WEIGHT_TYPE : EUC_2D
NODE_COORD_SECTION
1   29.28   164.41
2   179.98   143.41
3   276.53   159.78
4   369.48   67.34
5   398.02   330.97
6   226.67   292.2
7   194.15   260.12
8   176.27   216.53
9   71.99   284.17
10   52.26   257.49
